benchmarks/bfuzz0/13807322318352383112865212782976814827.smt2
(set-logic QF_FP)
(declare-const x0 (_ FloatingPoint 8 24))
(declare-const x1 (_ FloatingPoint 8 24))
(declare-const x2 (_ FloatingPoint 8 24))
(declare-const x3 (_ FloatingPoint 8 24))
(declare-const x4 (_ FloatingPoint 8 24))
(declare-const x5 (_ FloatingPoint 8 24))
(declare-const x6 (_ FloatingPoint 8 24))
(declare-const x7 (_ FloatingPoint 8 24))
(declare-const x8 (_ FloatingPoint 8 24))
(declare-const x9 (_ FloatingPoint 8 24))
(assert (fp.leq (fp.neg x9) (fp.add RNE x7 x5)))
(assert (fp.lt (fp.add RNE x8 x5) (fp.neg x6)))
(assert (fp.gt (fp.neg x8) (fp.div RNE x3 x3)))
(assert (fp.eq (fp.neg x3) (fp.add RNE x4 x3)))
(assert (fp.geq (fp.div RNE x2 x9) (fp.neg x8)))
(assert (fp.eq (fp.neg x1) (fp.add RNE x1 x2)))
(assert (fp.geq (fp.div RNE x5 x4) (fp.div RNE x4 x8)))
(assert (fp.geq (fp.add RNE x1 x4) (fp.add RNE x1 x8)))
(check-sat)
