db/data/13807322318352383112865212782976814827.z3.out
sat
-------------------
21.318760175
